peakDumbCharging = 14800; 
Machine = anon_enum(16); 
machineSpeed = [3700,3700,3700,3700,3700,3700,3700,3700,3700,3700,3700,3700,3700,3700,3700,3700]; 
machineLoad = [3700,3700,3700,3700,3700,3700,3700,3700,3700,3700,3700,3700,3700,3700,3700,3700]; 
Car = anon_enum(10); 
demandCar = [7560,7200,8240,6800,35320,2720,23640,3560,12520,19360]; 
arrivalCar = [64,62,58,57,56,53,51,50,48,45]; 
departureCar = [68,66,64,61,73,56,64,52,53,52]; 
